100
128
17
62
54
12
41
4
36
62
15
41
13
60
22
58
54
60
56
42
10
11
47
46
60
47
28
56
6
50
59
46
57
14
46
56
43
2
60
3
36
35
42
34
42
34
56
46
31
4
49
33
39
37
10
38
62
7
51
63
45
4
46
7
58
4
57
48
21
63
45
3
16
53
2
28
49
31
29
4
35
37
63
18
47
56
6
5
43
15
1
42
13
47
48
49
55
48
24
29
30
39